Rodando pra 1h

Optimize a model with 250087 rows, 374322 columns and 9220135 nonzeros
Coefficient statistics:
  Matrix range    [1e+00, 1e+04]
  Objective range [2e-01, 2e-01]
  Bounds range    [1e+00, 1e+04]
  RHS range       [1e+00, 1e+04]
Presolve removed 1 rows and 1 columns (presolve time = 9s) ...
Presolve removed 2 rows and 2 columns (presolve time = 13s) ...
Presolve removed 2 rows and 2 columns (presolve time = 17s) ...
Presolve removed 2 rows and 2 columns (presolve time = 21s) ...
Presolve removed 2 rows and 2 columns (presolve time = 25s) ...
Presolve removed 2 rows and 2 columns (presolve time = 31s) ...
Presolve removed 2 rows and 2 columns (presolve time = 35s) ...
Presolve removed 2 rows and 2 columns (presolve time = 40s) ...
Presolve removed 2 rows and 2 columns (presolve time = 45s) ...
Presolve removed 2 rows and 2 columns (presolve time = 50s) ...
Presolve removed 2 rows and 2 columns (presolve time = 56s) ...
Presolve removed 2 rows and 2 columns (presolve time = 62s) ...
Presolve removed 2 rows and 2 columns (presolve time = 66s) ...
Presolve removed 2 rows and 2 columns (presolve time = 70s) ...
Presolve removed 2 rows and 2 columns (presolve time = 76s) ...
Presolve removed 2 rows and 2 columns (presolve time = 80s) ...
Presolve removed 2 rows and 2 columns (presolve time = 86s) ...
Presolve removed 2 rows and 2 columns (presolve time = 90s) ...
Presolve removed 2 rows and 2 columns (presolve time = 97s) ...
Presolve removed 2 rows and 2 columns (presolve time = 101s) ...
Presolve removed 2 rows and 2 columns (presolve time = 112s) ...
Presolve removed 2 rows and 2 columns (presolve time = 129s) ...
Presolve removed 2 rows and 2 columns
Presolve time: 128.57s
Presolved: 250085 rows, 374320 columns, 9220123 nonzeros
Variable types: 249500 continuous, 124820 integer (124814 binary)
Optimize a model with 250085 rows, 374320 columns and 9220123 nonzeros
Coefficient statistics:
  Matrix range    [1e+00, 1e+04]
  Objective range [2e-01, 2e-01]
  Bounds range    [1e+00, 1e+04]
  RHS range       [1e+00, 2e+04]
Presolve removed 0 rows and 0 columns (presolve time = 5s) ...
Presolved: 250085 rows, 374320 columns, 9220123 nonzeros


Root simplex log...

Iteration    Objective       Primal Inf.    Dual Inf.      Time
       0    0.0000000e+00   1.510975e+03   0.000000e+00    156s
    1047    0.0000000e+00   0.000000e+00   0.000000e+00    157s

Root relaxation: objective 0.000000e+00, 1047 iterations, 9.52 seconds

    Nodes    |    Current Node    |     Objective Bounds      |     Work
 Expl Unexpl |  Obj  Depth IntInf | Incumbent    BestBd   Gap | It/Node Time

     0     0    0.00000    0  521          -    0.00000      -     - 3097s
     0     0          -    0               -    0.00000      -     - 3600s

Cutting planes:
  Flow cover: 389

Explored 0 nodes (256718 simplex iterations) in 3600.02 seconds
Thread count was 1 (of 4 available processors)

Time limit reached
Best objective -, best bound 0.000000000000e+00, gap -
Tempo: 3592.58 segundos

Error code = 10004
Var::get
